
Log started (V11.0.0) Sat May 17 03:45:42 2008

Tried aggregator 1 time.
Reduced MIP has 510 rows, 5001 columns, and 10010 nonzeros.
Presolve time =    0.03 sec.
Clique table members: 500.
MIP emphasis: balance optimality and feasibility.
MIP search method: dynamic search.
Parallel mode: none, using 1 thread.
Root relaxation solution time =    0.17 sec.

        Nodes                                         Cuts/
   Node  Left     Objective  IInf  Best Integer     Best Node    ItCnt     Gap

*     0+    0                        55100.0000     5072.4000      539   90.79%
*     0+    0                         5097.0000     5072.4000      539    0.48%
      0     0     5073.0000    17     5097.0000      Fract: 6      586    0.47%
*     0+    0                         5094.0000     5073.0000      586    0.41%
      0     0     5073.0000    22     5094.0000     Covers: 2      620    0.41%
      0     0     5073.0000    18     5094.0000     Covers: 1      628    0.41%
*     0+    0                         5089.0000     5073.0000      628    0.31%
      0     0     5073.0000    22     5089.0000     Covers: 1      632    0.31%
*     0+    0                         5088.0000     5073.0000      632    0.29%
      0     2     5073.0000    22     5088.0000     5073.0000      632    0.29%
    100    82     5074.0202    18     5088.0000     5073.0000     4381    0.29%
    200   158     5075.0000    18     5088.0000     5073.0000     9201    0.29%
    300   250     5075.0202    19     5088.0000     5073.0000    14039    0.29%
    400   336     5077.0000    18     5088.0000     5073.0000    19113    0.29%
    500   407     5078.0000    15     5088.0000     5073.0000    26245    0.29%
*   531+  430                         5081.0000     5073.0000    28206    0.16%
*   532+  430                         5080.0000     5073.0000    28220    0.14%
*   532+  421                         5079.0000     5073.0000    28220    0.12%
*   533+  281                         5077.0000     5073.0000    29916    0.08%
*   533+  186                         5076.0000     5073.0000    29916    0.06%
    600   188    infeasible           5076.0000     5073.0000    31384    0.06%
    700   176     5075.0000    17     5076.0000     5073.0000    36336    0.06%
    800   151     5075.0000    17     5076.0000     5073.0000    45580    0.06%
    900   201     5075.0000    20     5076.0000     5073.0000    56042    0.06%
   1000   281     5075.0000    16     5076.0000     5073.0000    61872    0.06%
Elapsed time =  27.16 sec. (tree size =  0.49 MB, solutions = 10)
*  1027+   32                         5075.0000     5073.0000    63552    0.04%
   1100    90     5073.0000    22     5075.0000     5073.0000    65356    0.04%
*  1133+   35                         5074.0000     5073.0000    65818    0.02%
   1200    37     5073.0000    35     5074.0000     5073.0000    71890    0.02%

Cover cuts applied:  98
Mixed integer rounding cuts applied:  6
Gomory fractional cuts applied:  17

Solution pool: 12 solutions saved.

MIP - Integer optimal solution:  Objective = 5.0740000000e+003
Solution time =   38.67 sec.  Iterations = 84391  Nodes = 1263


Incumbent solution
Variable Name           Solution Value
Cmax                       5074.000000
X_1_6                         1.000000
X_2_4                         1.000000
X_3_1                         1.000000
X_4_7                         1.000000
X_5_6                         1.000000
X_6_4                         1.000000
X_7_6                         1.000000
X_8_1                         1.000000
X_9_4                         1.000000
X_10_10                       1.000000
X_11_8                        1.000000
X_12_7                        1.000000
X_13_4                        1.000000
X_14_8                        1.000000
X_15_1                        1.000000
X_16_9                        1.000000
X_17_6                        1.000000
X_18_3                        1.000000
X_19_1                        1.000000
X_20_9                        1.000000
X_21_6                        1.000000
X_22_2                        1.000000
X_23_3                        1.000000
X_24_9                        1.000000
X_25_6                        1.000000
X_26_9                        1.000000
X_27_5                        1.000000
X_28_8                        1.000000
X_29_2                        1.000000
X_30_3                        1.000000
X_31_6                        1.000000
X_32_9                        1.000000
X_33_4                        1.000000
X_34_7                        1.000000
X_35_1                        1.000000
X_36_7                        1.000000
X_37_7                        1.000000
X_38_2                        1.000000
X_39_2                        1.000000
X_40_4                        1.000000
X_41_8                        1.000000
X_42_8                        1.000000
X_43_4                        1.000000
X_44_1                        1.000000
X_45_8                        1.000000
X_46_5                        1.000000
X_47_7                        1.000000
X_48_7                        1.000000
X_49_2                        1.000000
X_50_7                        1.000000
X_51_2                        1.000000
X_52_5                        1.000000
X_53_5                        1.000000
X_54_7                        1.000000
X_55_3                        1.000000
X_56_8                        1.000000
X_57_10                       1.000000
X_58_8                        1.000000
X_59_6                        1.000000
X_60_3                        1.000000
X_61_2                        1.000000
X_62_3                        1.000000
X_63_2                        1.000000
X_64_2                        1.000000
X_65_2                        1.000000
X_66_2                        1.000000
X_67_7                        1.000000
X_68_3                        1.000000
X_69_9                        1.000000
X_70_10                       1.000000
X_71_9                        1.000000
X_72_1                        1.000000
X_73_1                        1.000000
X_74_1                        1.000000
X_75_1                        1.000000
X_76_6                        1.000000
X_77_4                        1.000000
X_78_9                        1.000000
X_79_9                        1.000000
X_80_10                       1.000000
X_81_10                       1.000000
X_82_3                        1.000000
X_83_9                        1.000000
X_84_4                        1.000000
X_85_7                        1.000000
X_86_5                        1.000000
X_87_5                        1.000000
X_88_1                        1.000000
X_89_8                        1.000000
X_90_8                        1.000000
X_91_1                        1.000000
X_92_7                        1.000000
X_93_5                        1.000000
X_94_5                        1.000000
X_95_3                        1.000000
X_96_4                        1.000000
X_97_8                        1.000000
X_98_3                        1.000000
X_99_2                        1.000000
X_100_1                       1.000000
X_101_5                       1.000000
X_102_10                      1.000000
X_103_3                       1.000000
X_104_6                       1.000000
X_105_6                       1.000000
X_106_3                       1.000000
X_107_8                       1.000000
X_108_10                      1.000000
X_109_8                       1.000000
X_110_10                      1.000000
X_111_8                       1.000000
X_112_8                       1.000000
X_113_1                       1.000000
X_114_9                       1.000000
X_115_10                      1.000000
X_116_6                       1.000000
X_117_1                       1.000000
X_118_5                       1.000000
X_119_4                       1.000000
X_120_5                       1.000000
X_121_3                       1.000000
X_122_6                       1.000000
X_123_10                      1.000000
X_124_6                       1.000000
X_125_9                       1.000000
X_126_9                       1.000000
X_127_9                       1.000000
X_128_9                       1.000000
X_129_7                       1.000000
X_130_8                       1.000000
X_131_10                      1.000000
X_132_1                       1.000000
X_133_1                       1.000000
X_134_5                       1.000000
X_135_6                       1.000000
X_136_1                       1.000000
X_137_7                       1.000000
X_138_10                      1.000000
X_139_8                       1.000000
X_140_10                      1.000000
X_141_4                       1.000000
X_142_3                       1.000000
X_143_10                      1.000000
X_144_3                       1.000000
X_145_2                       1.000000
X_146_8                       1.000000
X_147_9                       1.000000
X_148_1                       1.000000
X_149_1                       1.000000
X_150_4                       1.000000
X_151_10                      1.000000
X_152_1                       1.000000
X_153_7                       1.000000
X_154_9                       1.000000
X_155_5                       1.000000
X_156_7                       1.000000
X_157_9                       1.000000
X_158_6                       1.000000
X_159_5                       1.000000
X_160_5                       1.000000
X_161_9                       1.000000
X_162_10                      1.000000
X_163_5                       1.000000
X_164_1                       1.000000
X_165_7                       1.000000
X_166_8                       1.000000
X_167_8                       1.000000
X_168_7                       1.000000
X_169_4                       1.000000
X_170_7                       1.000000
X_171_8                       1.000000
X_172_10                      1.000000
X_173_8                       1.000000
X_174_10                      1.000000
X_175_6                       1.000000
X_176_1                       1.000000
X_177_3                       1.000000
X_178_10                      1.000000
X_179_10                      1.000000
X_180_7                       1.000000
X_181_7                       1.000000
X_182_10                      1.000000
X_183_1                       1.000000
X_184_2                       1.000000
X_185_4                       1.000000
X_186_5                       1.000000
X_187_9                       1.000000
X_188_5                       1.000000
X_189_5                       1.000000
X_190_10                      1.000000
X_191_7                       1.000000
X_192_6                       1.000000
X_193_8                       1.000000
X_194_1                       1.000000
X_195_4                       1.000000
X_196_2                       1.000000
X_197_10                      1.000000
X_198_10                      1.000000
X_199_4                       1.000000
X_200_1                       1.000000
X_201_10                      1.000000
X_202_5                       1.000000
X_203_10                      1.000000
X_204_3                       1.000000
X_205_2                       1.000000
X_206_10                      1.000000
X_207_6                       1.000000
X_208_2                       1.000000
X_209_2                       1.000000
X_210_3                       1.000000
X_211_4                       1.000000
X_212_3                       1.000000
X_213_1                       1.000000
X_214_3                       1.000000
X_215_7                       1.000000
X_216_7                       1.000000
X_217_3                       1.000000
X_218_7                       1.000000
X_219_4                       1.000000
X_220_5                       1.000000
X_221_6                       1.000000
X_222_5                       1.000000
X_223_9                       1.000000
X_224_3                       1.000000
X_225_5                       1.000000
X_226_3                       1.000000
X_227_4                       1.000000
X_228_9                       1.000000
X_229_3                       1.000000
X_230_6                       1.000000
X_231_10                      1.000000
X_232_5                       1.000000
X_233_1                       1.000000
X_234_8                       1.000000
X_235_3                       1.000000
X_236_6                       1.000000
X_237_5                       1.000000
X_238_8                       1.000000
X_239_6                       1.000000
X_240_7                       1.000000
X_241_4                       1.000000
X_242_4                       1.000000
X_243_5                       1.000000
X_244_8                       1.000000
X_245_3                       1.000000
X_246_7                       1.000000
X_247_9                       1.000000
X_248_2                       1.000000
X_249_6                       1.000000
X_250_6                       1.000000
X_251_2                       1.000000
X_252_7                       1.000000
X_253_9                       1.000000
X_254_1                       1.000000
X_255_10                      1.000000
X_256_9                       1.000000
X_257_8                       1.000000
X_258_5                       1.000000
X_259_5                       1.000000
X_260_4                       1.000000
X_261_1                       1.000000
X_262_5                       1.000000
X_263_6                       1.000000
X_264_3                       1.000000
X_265_5                       1.000000
X_266_3                       1.000000
X_267_2                       1.000000
X_268_4                       1.000000
X_269_7                       1.000000
X_270_6                       1.000000
X_271_5                       1.000000
X_272_9                       1.000000
X_273_10                      1.000000
X_274_8                       1.000000
X_275_6                       1.000000
X_276_9                       1.000000
X_277_5                       1.000000
X_278_6                       1.000000
X_279_1                       1.000000
X_280_1                       1.000000
X_281_7                       1.000000
X_282_1                       1.000000
X_283_5                       1.000000
X_284_4                       1.000000
X_285_2                       1.000000
X_286_9                       1.000000
X_287_4                       1.000000
X_288_5                       1.000000
X_289_3                       1.000000
X_290_9                       1.000000
X_291_1                       1.000000
X_292_6                       1.000000
X_293_7                       1.000000
X_294_8                       1.000000
X_295_3                       1.000000
X_296_3                       1.000000
X_297_6                       1.000000
X_298_4                       1.000000
X_299_1                       1.000000
X_300_7                       1.000000
X_301_4                       1.000000
X_302_6                       1.000000
X_303_7                       1.000000
X_304_1                       1.000000
X_305_9                       1.000000
X_306_10                      1.000000
X_307_5                       1.000000
X_308_3                       1.000000
X_309_5                       1.000000
X_310_3                       1.000000
X_311_4                       1.000000
X_312_9                       1.000000
X_313_5                       1.000000
X_314_1                       1.000000
X_315_5                       1.000000
X_316_10                      1.000000
X_317_6                       1.000000
X_318_5                       1.000000
X_319_6                       1.000000
X_320_8                       1.000000
X_321_4                       1.000000
X_322_2                       1.000000
X_323_3                       1.000000
X_324_7                       1.000000
X_325_2                       1.000000
X_326_9                       1.000000
X_327_3                       1.000000
X_328_1                       1.000000
X_329_9                       1.000000
X_330_4                       1.000000
X_331_10                      1.000000
X_332_3                       1.000000
X_333_7                       1.000000
X_334_10                      1.000000
X_335_8                       1.000000
X_336_5                       1.000000
X_337_8                       1.000000
X_338_10                      1.000000
X_339_2                       1.000000
X_340_8                       1.000000
X_341_10                      1.000000
X_342_5                       1.000000
X_343_10                      1.000000
X_344_10                      1.000000
X_345_6                       1.000000
X_346_6                       1.000000
X_347_4                       1.000000
X_348_7                       1.000000
X_349_10                      1.000000
X_350_3                       1.000000
X_351_2                       1.000000
X_352_9                       1.000000
X_353_9                       1.000000
X_354_2                       1.000000
X_355_6                       1.000000
X_356_1                       1.000000
X_357_7                       1.000000
X_358_8                       1.000000
X_359_4                       1.000000
X_360_9                       1.000000
X_361_1                       1.000000
X_362_6                       1.000000
X_363_9                       1.000000
X_364_4                       1.000000
X_365_8                       1.000000
X_366_8                       1.000000
X_367_4                       1.000000
X_368_7                       1.000000
X_369_4                       1.000000
X_370_8                       1.000000
X_371_2                       1.000000
X_372_7                       1.000000
X_373_9                       1.000000
X_374_7                       1.000000
X_375_2                       1.000000
X_376_3                       1.000000
X_377_6                       1.000000
X_378_10                      1.000000
X_379_9                       1.000000
X_380_2                       1.000000
X_381_9                       1.000000
X_382_7                       1.000000
X_383_4                       1.000000
X_384_9                       1.000000
X_385_9                       1.000000
X_386_7                       1.000000
X_387_6                       1.000000
X_388_7                       1.000000
X_389_6                       1.000000
X_390_4                       1.000000
X_391_2                       1.000000
X_392_2                       1.000000
X_393_9                       1.000000
X_394_7                       1.000000
X_395_7                       1.000000
X_396_1                       1.000000
X_397_8                       1.000000
X_398_5                       1.000000
X_399_3                       1.000000
X_400_2                       1.000000
X_401_2                       1.000000
X_402_2                       1.000000
X_403_7                       1.000000
X_404_9                       1.000000
X_405_3                       1.000000
X_406_9                       1.000000
X_407_8                       1.000000
X_408_9                       1.000000
X_409_6                       1.000000
X_410_4                       1.000000
X_411_8                       1.000000
X_412_2                       1.000000
X_413_5                       1.000000
X_414_4                       1.000000
X_415_1                       1.000000
X_416_2                       1.000000
X_417_6                       1.000000
X_418_6                       1.000000
X_419_10                      1.000000
X_420_10                      1.000000
X_421_3                       1.000000
X_422_5                       1.000000
X_423_8                       1.000000
X_424_2                       1.000000
X_425_8                       1.000000
X_426_9                       1.000000
X_427_8                       1.000000
X_428_2                       1.000000
X_429_3                       1.000000
X_430_3                       1.000000
X_431_6                       1.000000
X_432_3                       1.000000
X_433_3                       1.000000
X_434_4                       1.000000
X_435_10                      1.000000
X_436_2                       1.000000
X_437_2                       1.000000
X_438_2                       1.000000
X_439_2                       1.000000
X_440_2                       1.000000
X_441_2                       1.000000
X_442_5                       1.000000
X_443_4                       1.000000
X_444_2                       1.000000
X_445_2                       1.000000
X_446_1                       1.000000
X_447_2                       1.000000
X_448_6                       1.000000
X_449_5                       1.000000
X_450_4                       1.000000
X_451_2                       1.000000
X_452_7                       1.000000
X_453_9                       1.000000
X_454_1                       1.000000
X_455_5                       1.000000
X_456_1                       1.000000
X_457_10                      1.000000
X_458_5                       1.000000
X_459_8                       1.000000
X_460_1                       1.000000
X_461_10                      1.000000
X_462_4                       1.000000
X_463_7                       1.000000
X_464_4                       1.000000
X_465_6                       1.000000
X_466_4                       1.000000
X_467_9                       1.000000
X_468_3                       1.000000
X_469_8                       1.000000
X_470_6                       1.000000
X_471_8                       1.000000
X_472_3                       1.000000
X_473_1                       1.000000
X_474_4                       1.000000
X_475_1                       1.000000
X_476_5                       1.000000
X_477_10                      1.000000
X_478_6                       1.000000
X_479_8                       1.000000
X_480_2                       1.000000
X_481_4                       1.000000
X_482_1                       1.000000
X_483_8                       1.000000
X_484_1                       1.000000
X_485_3                       1.000000
X_486_10                      1.000000
X_487_8                       1.000000
X_488_7                       1.000000
X_489_9                       1.000000
X_490_10                      1.000000
X_491_10                      1.000000
X_492_4                       1.000000
X_493_7                       1.000000
X_494_4                       1.000000
X_495_8                       1.000000
X_496_3                       1.000000
X_497_10                      1.000000
X_498_3                       1.000000
X_499_5                       1.000000
X_500_6                       1.000000
All other variables in the range 1-5001 are 0.
